c WARNING: for repeatability, setting FPU to use double precision
d VARIABLES            26433        
d CONSTRAINTS          94512        
c ============================[ Problem Statistics ]=============================
c |                                                                             |
c |  Number of variables:         26433                                         |
c |  Number of clauses:           94512                                         |
c |  Parse time:                   0.01 s                                       |
c |                                                                             |
c ============================[ Search Statistics ]==============================
c | Conflicts |          ORIGINAL         |          LEARNT          | Progress |
c |           |    Vars  Clauses Literals |    Limit  Clauses Lit/Cl |          |
c ===============================================================================
c |       100 |   16295    67314   165650 |    24681       99    122 | 38.354 % |
c |       250 |   16295    67314   165650 |    27149      249     83 | 38.354 % |
c |       475 |   16295    67308   165635 |    29864      474     83 | 38.354 % |
c |       812 |   16295    67308   165635 |    32851      811     68 | 38.354 % |
c |      1318 |   16295    67308   165635 |    36136     1317     67 | 38.354 % |
c |      2077 |   16295    67308   165635 |    39750     2076     76 | 38.354 % |
c |      3216 |   16295    67308   165635 |    43725     3215     75 | 38.354 % |
c |      4924 |   16295    67308   165635 |    48097     4923     72 | 38.354 % |
c |      7486 |   16295    67308   165635 |    52907     7485     73 | 38.354 % |
c |     11330 |   16295    67308   165635 |    58198    11329     68 | 38.354 % |
c |     17096 |   16295    67308   165635 |    64018    17095     67 | 38.354 % |
c |     25745 |   16295    67308   165635 |    70420    25744     68 | 38.354 % |
c |     38719 |   16295    67308   165635 |    77462    38718     61 | 38.354 % |
c |     58180 |   16295    67308   165635 |    85208    58179     56 | 38.354 % |
c |     87372 |   16295    67308   165635 |    93729    87371     56 | 38.354 % |
c |    131161 |   16295    67308   165635 |   103102    45199     49 | 38.354 % |
c ===============================================================================
c restarts              : 459
c conflicts             : 169153         (4437 /sec)
c decisions             : 251815         (0.00 % random) (6605 /sec)
c propagations          : 135933837      (3565723 /sec)
c conflict literals     : 8571540        (57.33 % deleted)
d RESTARTS             459
d FAILURES             169153       
d NODES                251815       
d BACKTRACKS           251815       
d PROPAGATIONS         135933837    
d NOGOODSIZE           50.67 
d MEMORY               54.00 
d TIME                 38.1224 

s UNSATISFIABLE
